p cnf 131 438
-3 -1 0
-3 -2 0
1 2 3 0
-6 -1 0
-6 -5 0
1 5 6 0
8 -6 0
8 -7 0
6 7 -8 0
-9 -4 0
-9 8 0
4 -8 9 0
-11 -9 0
-11 10 0
9 -10 11 0
3 -11 -12 0
-3 11 -12 0
3 11 12 0
-3 -11 12 0
-14 10 0
-14 13 0
-10 -13 14 0
14 -15 -16 0
-14 15 -16 0
14 15 16 0
-14 -15 16 0
17 -18 -19 0
-17 18 -19 0
17 18 19 0
-17 -18 19 0
20 -16 0
20 -19 0
16 19 -20 0
5 -21 -22 0
-5 21 -22 0
5 21 22 0
-5 -21 22 0
-22 -2 -23 0
22 2 -23 0
-22 2 23 0
22 -2 23 0
-24 20 0
-24 -23 0
-20 23 24 0
12 -24 -25 0
-12 24 -25 0
12 24 25 0
-12 -24 25 0
1 26 -27 0
-1 -26 -27 0
1 -26 27 0
-1 26 27 0
28 -18 0
28 -4 0
18 4 -28 0
-27 28 -29 0
27 -28 -29 0
-27 -28 29 0
27 28 29 0
31 -7 0
31 -13 0
7 13 -31 0
32 -31 0
32 1 0
31 -1 -32 0
33 30 0
33 32 0
-30 -32 -33 0
-29 33 -34 0
29 -33 -34 0
-29 -33 34 0
29 33 34 0
-25 34 -35 0
25 -34 -35 0
-25 -34 35 0
25 34 35 0
36 18 0
36 4 0
-18 -4 -36 0
37 35 0
37 -36 0
-35 36 -37 0
38 -18 0
38 -29 0
18 29 -38 0
-38 39 0
38 39 0
2 -4 -40 0
-2 4 -40 0
2 4 40 0
-2 -4 40 0
-40 -9 -41 0
40 9 -41 0
-40 9 41 0
40 -9 41 0
42 -15 0
42 23 0
15 -23 -42 0
41 -42 -43 0
-41 42 -43 0
41 42 43 0
-41 -42 43 0
44 -43 0
44 -28 0
43 28 -44 0
45 39 0
45 -44 0
-39 44 -45 0
-46 37 0
-46 45 0
-37 -45 46 0
-29 7 -47 0
29 -7 -47 0
-29 -7 47 0
29 7 47 0
-48 17 0
-48 -19 0
-17 19 48 0
49 47 0
49 -48 0
-47 48 -49 0
-21 10 -50 0
21 -10 -50 0
-21 -10 50 0
21 10 50 0
51 -5 0
51 -50 0
5 50 -51 0
52 -6 0
52 -51 0
6 51 -52 0
53 49 0
53 -52 0
-49 52 -53 0
5 22 -54 0
-5 -22 -54 0
5 -22 54 0
-5 22 54 0
-55 30 0
-55 26 0
-30 -26 55 0
56 -28 0
56 -55 0
28 55 -56 0
57 -54 0
57 -56 0
54 56 -57 0
-41 -14 -58 0
41 14 -58 0
-41 14 58 0
41 -14 58 0
57 58 -59 0
-57 -58 -59 0
57 -58 59 0
-57 58 59 0
60 -53 0
60 59 0
53 -59 -60 0
-18 61 -62 0
18 -61 -62 0
-18 -61 62 0
18 61 62 0
63 38 0
63 -62 0
-38 62 -63 0
64 -54 0
64 63 0
54 -63 -64 0
64 43 -65 0
-64 -43 -65 0
64 -43 65 0
-64 43 65 0
66 29 0
66 10 0
-29 -10 -66 0
65 66 -67 0
-65 -66 -67 0
65 -66 67 0
-65 66 67 0
68 -55 0
68 -20 0
55 20 -68 0
70 -68 0
70 69 0
68 -69 -70 0
-71 -67 0
-71 -70 0
67 70 71 0
29 -9 -72 0
-29 9 -72 0
29 9 72 0
-29 -9 72 0
-73 -71 0
-73 72 0
71 -72 73 0
74 60 0
74 73 0
-60 -73 -74 0
-46 74 -75 0
46 -74 -75 0
-46 -74 75 0
46 74 75 0
76 -19 0
76 69 0
19 -69 -76 0
77 26 0
77 50 0
-26 -50 -77 0
78 -28 0
78 77 0
28 -77 -78 0
-79 76 0
-79 -78 0
-76 78 79 0
80 79 0
80 -79 0
81 48 0
81 28 0
-48 -28 -81 0
-55 -81 -82 0
55 81 -82 0
-55 81 82 0
55 -81 82 0
80 82 -83 0
-80 -82 -83 0
80 -82 83 0
-80 82 83 0
84 75 0
84 -83 0
-75 83 -84 0
15 26 -85 0
-15 -26 -85 0
15 -26 85 0
-15 26 85 0
-86 51 0
-86 -85 0
-51 85 86 0
-87 41 0
-87 -8 0
-41 8 87 0
-88 -41 0
-88 41 0
38 28 -89 0
-38 -28 -89 0
38 -28 89 0
-38 28 89 0
90 -88 0
90 89 0
88 -89 -90 0
-87 -90 -91 0
87 90 -91 0
-87 90 91 0
87 -90 91 0
-51 42 -92 0
51 -42 -92 0
-51 -42 92 0
51 42 92 0
-93 7 0
-93 -92 0
-7 92 93 0
94 -51 0
94 -93 0
51 93 -94 0
-95 -91 0
-95 94 0
91 -94 95 0
-86 95 -96 0
86 -95 -96 0
-86 -95 96 0
86 95 96 0
97 -10 0
97 85 0
10 -85 -97 0
97 98 0
-97 98 0
-99 -51 0
-99 40 0
51 -40 99 0
-100 1 0
-100 30 0
-1 -30 100 0
101 -99 0
101 -100 0
99 100 -101 0
102 -9 0
102 -41 0
9 41 -102 0
-103 101 0
-103 102 0
-101 -102 103 0
104 98 0
104 -103 0
-98 103 -104 0
105 -10 0
105 88 0
10 -88 -105 0
-104 105 -106 0
104 -105 -106 0
-104 -105 106 0
104 105 106 0
-96 -106 -107 0
96 106 -107 0
-96 106 107 0
96 -106 107 0
-108 -26 0
-108 -16 0
26 16 108 0
-109 4 0
-109 -17 0
-4 17 109 0
-110 -109 0
-110 -92 0
109 92 110 0
111 48 0
111 -110 0
-48 110 -111 0
-112 108 0
-112 -111 0
-108 111 112 0
114 50 0
114 -113 0
-50 113 -114 0
-112 114 -115 0
112 -114 -115 0
-112 -114 115 0
112 114 115 0
116 23 0
116 51 0
-23 -51 -116 0
-117 -115 0
-117 -116 0
115 116 117 0
118 107 0
118 -117 0
-107 117 -118 0
-9 26 -119 0
9 -26 -119 0
-9 -26 119 0
9 26 119 0
-120 119 0
-120 9 0
-119 -9 120 0
121 1 0
121 -15 0
-1 15 -121 0
120 -121 -122 0
-120 121 -122 0
120 121 122 0
-120 -121 122 0
123 -118 0
123 122 0
118 -122 -123 0
32 97 -124 0
-32 -97 -124 0
32 -97 124 0
-32 97 124 0
125 27 0
125 93 0
-27 -93 -125 0
-124 -125 -126 0
124 125 -126 0
-124 125 126 0
124 -125 126 0
127 29 0
127 4 0
-29 -4 -127 0
128 -127 0
128 61 0
127 -61 -128 0
126 128 -129 0
-126 -128 -129 0
126 -128 129 0
-126 128 129 0
-123 -129 -130 0
123 129 -130 0
-123 129 130 0
123 -129 130 0
131 -84 0
131 130 0
84 -130 -131 0
102 -27 74 -44 0
128 -66 0
-77 -118 86 -64 39 0
116 -54 15 -122 0
60 49 17 130 0
94 2 -81 63 0
-78 -14 0
111 -66 0
-57 30 -98 -76 -84 0
116 -70 -123 0
-109 -131 -16 114 0
-45 -64 55 0
-123 71 -63 -50 0
68 24 -27 0
92 -78 6 -60 72 -113 0
-105 -116 -119 104 -20 75 0
-66 41 10 -90 0
-42 110 -122 0
-107 -33 -131 101 0
116 -104 0
-58 -66 82 95 -32 0
-29 -128 69 0
-10 12 -9 -88 26 0
-62 30 128 0
74 -115 29 0
124 -69 -16 -96 -64 66 0
96 -21 29 -123 -44 1 0
90 -54 34 0
27 -92 -65 25 0
-110 -47 0
-128 -39 131 -68 0
93 100 -37 -88 118 23 0
81 -128 52 108 126 0
-95 2 25 92 43 0
45 28 61 42 -81 0
61 -105 0
130 -87 -7 -21 24 0
47 20 -108 -94 88 0
-19 -87 -52 24 4 0
-102 -115 -44 -22 94 0
-34 -117 -121 69 106 -116 0
120 -119 0
-64 -5 0
57 -29 -112 0
-103 125 95 7 0
101 10 -128 0
-41 -47 -105 103 0
29 -39 0
-112 -1 126 129 0
32 -70 -46 -129 0
33 -42 -127 0
81 -36 0
70 16 0
-112 -11 0
-113 -40 100 0
-21 32 -130 0
44 -66 6 34 -61 -76 0
131 0
